p cnf 50 15
x -3 -4 6 -7 8 -9 -11 12 14 -17 18 -20 21 -22 23 24 27 -28 -31 -32 33 -34 36 38 44 46 50 0
x 1 2 3 5 -9 10 -12 13 -15 -17 19 20 24 25 27 -31 -33 -34 35 -38 40 41 -44 0
x 3 4 5 7 9 -10 12 -15 18 21 -22 -23 27 28 -29 32 -33 -34 -36 -37 -38 39 -41 43 44 45 -47 -48 0
x -2 3 -6 -7 8 12 -14 -15 16 -22 24 25 -27 31 -34 36 37 -38 -41 43 45 -46 -47 -48 50 0
x 1 -2 5 -6 -7 8 -10 11 12 -15 16 17 -18 -19 21 -22 -30 31 32 40 42 43 -44 -46 49 0
x -2 3 4 -5 6 7 -10 11 12 13 14 16 -19 20 23 -24 -25 26 27 -29 32 -33 36 -37 -38 43 47 49 0
x -1 3 -6 7 -8 9 10 -11 -12 -15 -18 19 -21 23 -27 -28 -32 -33 34 -36 38 -39 41 -42 43 -44 -45 -46 47 -48 50 0
x -3 -7 9 -12 14 17 -20 -23 25 -28 -29 30 31 -32 -33 -34 36 -38 39 -41 43 44 45 -47 50 0
x 5 7 8 -10 12 16 18 -20 21 -23 25 -26 -29 -30 32 33 35 40 41 43 44 45 -47 -48 49 0
x 1 3 4 6 7 8 -10 11 -13 -15 -16 -21 -28 -33 34 -35 -37 -38 -40 41 -43 48 0
x 1 3 6 -7 -8 11 15 -16 17 18 -19 20 -21 23 -24 -25 26 27 -28 29 30 33 -34 35 36 40 41 42 -43 44 46 48 49 0
x -2 -3 -6 7 -8 -9 -10 -14 16 -17 18 -20 -22 23 -26 27 -28 30 -31 -34 35 -37 38 39 45 -47 -48 0
x 1 2 -5 6 -7 9 -11 12 14 -15 -17 18 -19 21 23 25 -29 31 -36 -38 41 43 -46 -48 49 50 0
x 1 -3 6 -7 8 9 -10 11 -14 -16 -18 21 -22 -24 25 26 27 -28 31 33 -37 39 -42 44 46 49 50 0
x -2 -3 -5 -9 11 -14 16 -17 -18 19 22 -28 30 31 -37 38 -39 -44 -48 50 0
g -20